peakDumbCharging = 11100; 
Machine = anon_enum(16); 
machineSpeed = [3700,3700,3700,3700,3700,3700,3700,3700,3700,3700,3700,3700,3700,3700,3700,3700]; 
machineLoad = [3700,3700,3700,3700,3700,3700,3700,3700,3700,3700,3700,3700,3700,3700,3700,3700]; 
Car = anon_enum(9); 
demandCar = [4160,440,560,6160,1320,18200,10680,17200,11200]; 
arrivalCar = [68,58,58,56,52,50,50,46,39]; 
departureCar = [72,59,59,60,53,58,54,52,44]; 
